NAME: eil51.opt.tour
COMMENT: 
TYPE: TOUR
DIMENSION: 51
TOUR_SECTION
47
12
46
51
27
6
14
24
43
7
23
48
8
26
31
28
3
20
35
36
22
1
32
11
38
5
49
9
50
16
2
29
21
34
30
10
39
33
45
15
44
37
17
42
40
19
41
13
25
18
4
-1
EOF